NAME: NuevoCasoPequenioRenca-2

TYPE: TSP

COMMENT: 51 city problem

DIMENSION: 51

EDGE_WEIGHT_TYPE: EXPLICIT

EDGE_WEIGHT_FORMAT: LOWER_DIAG_ROW

EDGE_WEIGHT_SECTION

 0 39 39 1000 1000 1000 1000 1000 1000 1000 1000 1000 1000 1000 1000 1000 1000 1000 1000 1000 1000 1000 111 111 1000 1000 1000

 1000 1000 1000 1000 1000 1000 1000 1000 1000 1000 1000 1000 1000 1000 1000 1000 1000 1000 1000 1000 1000 1000 1000 1000 1000

 39 0 39 37 37 1000 1000 1000 1000 1000 82 82 1000 1000 1000 1000 1000 1000 1000 1000 1000 1000 1000 1000 1000 1000 1000

 1000 1000 1000 1000 1000 1000 1000 1000 1000 1000 1000 1000 1000 1000 1000 1000 1000 1000 1000 1000 1000 1000 1000 1000 1000

 39 39 0 37 37 1000 1000 1000 1000 1000 82 82 1000 1000 1000 1000 1000 1000 1000 1000 1000 1000 1000 1000 1000 1000 1000

 1000 1000 1000 1000 1000 1000 1000 1000 1000 1000 1000 1000 1000 1000 1000 1000 1000 1000 1000 1000 1000 1000 1000 1000 1000

 1000 1000 37 0 37 38 38 1000 1000 1000 1000 1000 1000 1000 1000 1000 1000 1000 1000 1000 1000 1000 1000 1000 1000 1000 1000

 110 110 1000 1000 1000 1000 1000 1000 1000 1000 1000 1000 1000 1000 1000 1000 1000 1000 1000 1000 1000 1000 1000 1000 1000

 1000 1000 37 37 0 38 38 1000 1000 1000 1000 1000 1000 1000 1000 1000 1000 1000 1000 1000 1000 1000 1000 1000 1000 1000 1000

 110 110 1000 1000 1000 1000 1000 1000 1000 1000 1000 1000 1000 1000 1000 1000 1000 1000 1000 1000 1000 1000 1000 1000 1000

 1000 1000 1000 1000 38 0 38 59 59 1000 1000 1000 1000 1000 1000 1000 83 83 1000 1000 1000 1000 1000 1000 1000 1000 1000

 1000 1000 1000 1000 1000 1000 1000 1000 1000 1000 1000 1000 1000 1000 1000 1000 1000 1000 1000 1000 1000 1000 1000 1000 1000

 1000 1000 1000 1000 38 38 0 59 59 1000 1000 1000 1000 1000 1000 1000 83 83 1000 1000 1000 1000 1000 1000 1000 1000 1000

 1000 1000 1000 1000 1000 1000 1000 1000 1000 1000 1000 1000 1000 1000 1000 1000 1000 1000 1000 1000 1000 1000 1000 1000 1000

 1000 1000 1000 1000 1000 1000 59 0 59 49 1000 1000 1000 1000 1000 1000 1000 1000 1000 1000 1000 1000 1000 1000 1000 1000 1000

 1000 1000 1000 1000 1000 1000 112 1000 1000 1000 1000 1000 1000 1000 1000 1000 1000 1000 1000 1000 1000 1000 1000 1000 1000

 1000 1000 1000 1000 1000 1000 1000 1000 0 49 1000 1000 1000 1000 1000 1000 1000 1000 1000 1000 1000 1000 1000 1000 43 1000 1000

 1000 1000 1000 1000 1000 1000 1000 1000 1000 1000 1000 1000 1000 1000 1000 1000 1000 1000 1000 1000 1000 1000 1000 1000 1000

 1000 1000 1000 1000 1000 1000 1000 1000 1000 0 82 82 14 14 14 14 1000 1000 1000 1000 1000 1000 1000 1000 1000 1000 1000

 1000 1000 1000 1000 1000 1000 1000 1000 1000 1000 1000 1000 1000 1000 1000 1000 1000 1000 1000 1000 1000 1000 1000 1000 1000

 39 39 37 37 1000 1000 1000 1000 1000 82 0 82 1000 1000 1000 1000 1000 1000 1000 1000 1000 1000 1000 1000 1000 1000 1000

 1000 1000 1000 1000 1000 1000 1000 1000 1000 1000 1000 1000 1000 1000 1000 1000 1000 1000 1000 1000 1000 1000 1000 1000 1000

 1000 1000 1000 1000 1000 1000 1000 1000 1000 1000 1000 0 14 14 1000 1000 1000 1000 1000 1000 1000 1000 1000 1000 1000 1000 1000

 1000 1000 1000 1000 1000 1000 1000 1000 1000 1000 1000 1000 1000 1000 1000 1000 1000 1000 1000 1000 1000 1000 1000 1000 1000

 1000 1000 1000 1000 1000 1000 1000 1000 1000 82 82 14 0 14 14 14 1000 1000 1000 1000 1000 1000 1000 1000 1000 1000 1000

 1000 1000 1000 1000 1000 1000 1000 1000 1000 1000 1000 1000 1000 1000 1000 1000 1000 1000 1000 1000 1000 1000 1000 1000 1000

 1000 1000 1000 1000 1000 1000 1000 1000 1000 82 82 14 14 0 14 14 1000 1000 1000 1000 1000 1000 1000 1000 1000 1000 1000

 1000 1000 1000 1000 1000 1000 1000 1000 1000 1000 1000 1000 1000 1000 1000 1000 1000 1000 1000 1000 1000 1000 1000 1000 1000

 1000 1000 1000 1000 1000 1000 1000 1000 1000 1000 1000 1000 1000 14 0 14 1000 1000 1000 1000 1000 1000 1000 1000 1000 1000 1000

 1000 1000 1000 1000 1000 1000 1000 1000 1000 1000 1000 1000 1000 1000 1000 1000 1000 1000 1000 1000 1000 1000 1000 1000 1000

 1000 1000 1000 1000 1000 1000 1000 1000 1000 1000 1000 1000 1000 1000 1000 0 83 83 15 15 13 13 1000 1000 1000 1000 1000

 1000 1000 1000 1000 1000 1000 1000 1000 1000 1000 1000 1000 1000 1000 1000 1000 1000 1000 1000 1000 1000 1000 1000 1000 1000

 1000 1000 1000 1000 38 38 59 59 1000 1000 1000 1000 1000 1000 1000 83 0 83 1000 1000 1000 1000 1000 1000 1000 1000 1000

 1000 1000 1000 1000 1000 1000 1000 1000 1000 1000 1000 1000 1000 1000 1000 1000 1000 1000 1000 1000 1000 1000 1000 1000 1000

 1000 1000 1000 1000 1000 1000 1000 1000 1000 1000 1000 1000 1000 1000 1000 1000 1000 0 15 15 1000 1000 1000 1000 1000 1000 1000

 1000 1000 1000 1000 1000 1000 1000 1000 1000 1000 1000 1000 1000 1000 1000 1000 1000 1000 1000 1000 1000 1000 1000 1000 1000

 1000 1000 1000 1000 1000 1000 1000 1000 1000 1000 1000 1000 1000 1000 1000 83 83 15 0 15 13 13 1000 1000 1000 1000 1000

 1000 1000 1000 1000 1000 1000 1000 1000 1000 1000 1000 1000 1000 1000 1000 1000 1000 1000 1000 1000 1000 1000 1000 1000 1000

 1000 1000 1000 1000 1000 1000 1000 1000 1000 1000 1000 1000 1000 1000 1000 83 83 15 15 0 13 13 1000 1000 1000 1000 1000

 1000 1000 1000 1000 1000 1000 1000 1000 1000 1000 1000 1000 1000 1000 1000 1000 1000 1000 1000 1000 1000 1000 1000 1000 1000

 1000 1000 1000 1000 1000 1000 1000 1000 1000 1000 1000 1000 1000 1000 1000 1000 1000 1000 1000 13 0 13 1000 1000 1000 1000 1000

 1000 1000 1000 1000 1000 1000 1000 1000 1000 1000 1000 1000 1000 1000 1000 1000 1000 1000 1000 1000 1000 1000 1000 1000 1000

 1000 1000 1000 1000 1000 1000 1000 1000 1000 1000 1000 1000 1000 1000 1000 1000 1000 1000 1000 1000 1000 0 111 111 1000 62 62

 1000 1000 1000 1000 1000 1000 1000 1000 1000 42 42 1000 1000 1000 1000 1000 1000 1000 1000 1000 1000 1000 1000 1000 1000

 39 39 1000 1000 1000 1000 1000 1000 1000 1000 1000 1000 1000 1000 1000 1000 1000 1000 1000 1000 1000 111 0 111 1000 1000 1000

 1000 1000 1000 1000 1000 1000 1000 1000 1000 1000 1000 1000 1000 1000 1000 1000 1000 1000 1000 1000 1000 1000 1000 1000 1000

 1000 1000 1000 1000 1000 1000 1000 1000 1000 1000 1000 1000 1000 1000 1000 1000 1000 1000 1000 1000 1000 1000 1000 0 43 1000 1000

 1000 1000 1000 1000 1000 1000 1000 1000 1000 1000 1000 109 1000 1000 1000 1000 1000 1000 1000 1000 1000 1000 1000 1000 1000

 1000 1000 1000 1000 1000 1000 1000 1000 1000 1000 1000 1000 1000 1000 1000 1000 1000 1000 1000 1000 1000 111 111 1000 0 62 62

 1000 1000 1000 1000 1000 1000 1000 1000 1000 42 42 1000 1000 1000 1000 1000 1000 1000 1000 1000 1000 1000 1000 1000 1000

 1000 1000 1000 1000 1000 1000 1000 1000 1000 1000 1000 1000 1000 1000 1000 1000 1000 1000 1000 1000 1000 1000 1000 1000 62 0 62

 1000 1000 15 15 1000 1000 1000 1000 1000 1000 1000 1000 1000 1000 1000 1000 1000 1000 1000 112 112 1000 1000 1000 1000

 1000 1000 1000 1000 1000 1000 1000 1000 1000 1000 1000 1000 1000 1000 1000 1000 1000 1000 1000 1000 1000 1000 1000 1000 1000 1000 0

 110 110 15 15 29 29 1000 1000 1000 1000 1000 1000 1000 1000 1000 1000 1000 1000 1000 1000 1000 1000 1000 1000 1000

 1000 1000 37 37 38 38 1000 1000 1000 1000 1000 1000 1000 1000 1000 1000 1000 1000 1000 1000 1000 1000 1000 1000 1000 1000

 110 0 110 1000 1000 1000 1000 1000 1000 1000 1000 1000 1000 1000 1000 1000 1000 1000 1000 1000 1000 1000 1000 1000 1000 1000

 1000 1000 1000 1000 1000 1000 1000 1000 1000 1000 1000 1000 1000 1000 1000 1000 1000 1000 1000 1000 1000 1000 1000 1000 62 62

 1000 1000 0 15 15 1000 1000 1000 1000 1000 1000 1000 1000 1000 1000 1000 1000 1000 1000 1000 112 112 1000 1000 1000 1000

 1000 1000 1000 1000 1000 1000 1000 1000 1000 1000 1000 1000 1000 1000 1000 1000 1000 1000 1000 1000 1000 1000 1000 1000 1000 1000

 110 110 15 0 15 29 29 1000 1000 1000 1000 1000 1000 1000 1000 1000 1000 1000 1000 1000 1000 1000 1000 1000 1000 1000

 1000 1000 1000 1000 1000 1000 1000 1000 1000 1000 1000 1000 1000 1000 1000 1000 1000 1000 1000 1000 1000 1000 1000 1000 1000 1000

 110 110 15 15 0 29 29 1000 1000 1000 1000 1000 1000 1000 1000 1000 1000 1000 1000 1000 1000 1000 1000 1000 1000 1000

 1000 1000 1000 1000 1000 1000 1000 1000 1000 1000 1000 1000 1000 1000 1000 1000 1000 1000 1000 1000 1000 1000 1000 1000 1000 1000

 1000 1000 1000 1000 29 0 29 1000 48 48 1000 1000 1000 1000 1000 1000 102 102 1000 1000 1000 1000 1000 1000 1000 1000

 1000 1000 1000 1000 1000 1000 59 59 49 1000 1000 1000 1000 1000 1000 1000 1000 1000 1000 1000 1000 1000 1000 1000 1000 1000

 1000 1000 1000 1000 1000 1000 0 112 1000 1000 1000 1000 1000 1000 1000 1000 1000 1000 1000 1000 1000 1000 1000 1000 1000 1000

 1000 1000 1000 1000 1000 1000 1000 1000 1000 1000 1000 1000 1000 1000 1000 1000 1000 1000 1000 1000 1000 1000 1000 1000 1000 1000

 1000 1000 1000 1000 29 29 1000 0 48 48 1000 1000 1000 1000 1000 1000 102 102 1000 1000 1000 1000 1000 1000 1000 1000

 1000 1000 1000 1000 1000 1000 1000 1000 1000 1000 1000 1000 1000 1000 1000 1000 1000 1000 1000 1000 1000 1000 1000 1000 1000 1000

 1000 1000 1000 1000 1000 1000 112 48 0 48 1000 1000 1000 91 1000 1000 1000 1000 1000 1000 1000 1000 1000 1000 1000 1000

 1000 1000 1000 1000 1000 1000 1000 1000 1000 1000 1000 1000 1000 1000 1000 1000 1000 1000 1000 1000 1000 1000 1000 1000 1000 1000

 1000 1000 1000 1000 1000 1000 1000 1000 1000 0 42 42 1000 1000 1000 1000 1000 1000 1000 1000 1000 1000 1000 1000 79 79

 1000 1000 1000 1000 1000 1000 1000 1000 1000 1000 1000 1000 1000 1000 1000 1000 1000 1000 1000 1000 1000 111 111 1000 62 62

 1000 1000 1000 1000 1000 1000 1000 1000 1000 42 0 42 1000 1000 1000 1000 1000 1000 1000 1000 1000 1000 1000 1000 1000 1000

 1000 1000 1000 1000 1000 1000 1000 1000 1000 1000 1000 1000 1000 1000 1000 1000 1000 1000 1000 1000 1000 1000 1000 1000 1000 1000

 1000 1000 1000 1000 1000 1000 1000 1000 1000 1000 1000 0 109 91 55 55 1000 1000 1000 1000 1000 1000 1000 1000 1000 1000

 1000 1000 1000 1000 1000 1000 1000 1000 1000 1000 1000 1000 1000 1000 1000 1000 1000 1000 1000 1000 1000 1000 1000 1000 1000 1000

 1000 1000 1000 1000 1000 1000 112 48 48 1000 1000 1000 0 91 1000 1000 1000 1000 1000 1000 1000 1000 1000 1000 1000 1000

 1000 1000 1000 1000 1000 1000 1000 1000 1000 1000 1000 1000 1000 1000 1000 1000 1000 1000 1000 1000 1000 1000 1000 1000 1000 1000

 1000 1000 1000 1000 1000 1000 1000 1000 1000 1000 1000 1000 1000 0 55 55 102 102 45 45 1000 1000 1000 1000 1000 1000

 1000 1000 1000 1000 1000 1000 1000 1000 1000 1000 1000 1000 1000 1000 1000 1000 1000 1000 1000 1000 1000 1000 1000 1000 1000 1000

 1000 1000 1000 1000 1000 1000 1000 1000 1000 1000 1000 109 91 55 0 55 1000 1000 1000 1000 1000 1000 1000 1000 1000 1000

 1000 1000 1000 1000 1000 1000 1000 1000 1000 1000 1000 1000 1000 1000 1000 1000 1000 1000 1000 1000 1000 1000 1000 1000 1000 1000

 1000 1000 1000 1000 1000 1000 1000 1000 1000 1000 1000 1000 1000 55 55 0 102 102 45 45 1000 1000 1000 1000 1000 1000

 1000 1000 1000 1000 1000 1000 1000 1000 1000 1000 1000 1000 1000 1000 1000 1000 1000 1000 1000 1000 1000 1000 1000 1000 1000 1000

 1000 1000 1000 1000 29 29 1000 48 48 1000 1000 1000 1000 1000 1000 102 0 102 1000 1000 1000 1000 1000 1000 1000 1000

 1000 1000 1000 1000 1000 1000 1000 1000 1000 1000 1000 1000 1000 1000 1000 1000 1000 1000 1000 1000 1000 1000 1000 1000 1000 1000

 1000 1000 1000 1000 1000 1000 1000 1000 1000 1000 1000 1000 1000 1000 1000 1000 1000 0 45 45 112 112 50 50 1000 1000

 1000 1000 1000 1000 1000 1000 1000 1000 1000 1000 1000 1000 1000 1000 1000 1000 1000 1000 1000 1000 1000 1000 1000 1000 1000 1000

 1000 1000 1000 1000 1000 1000 1000 1000 1000 1000 1000 1000 1000 55 55 102 102 45 0 45 1000 1000 1000 1000 1000 1000

 1000 1000 1000 1000 1000 1000 1000 1000 1000 1000 1000 1000 1000 1000 1000 1000 1000 1000 1000 1000 1000 1000 1000 1000 1000 1000

 1000 1000 1000 1000 1000 1000 1000 1000 1000 1000 1000 1000 1000 1000 1000 1000 1000 45 45 0 112 112 50 50 1000 1000

 1000 1000 1000 1000 1000 1000 1000 1000 1000 1000 1000 1000 1000 1000 1000 1000 1000 1000 1000 1000 1000 1000 1000 1000 62 62

 1000 1000 15 15 1000 1000 1000 1000 1000 1000 1000 1000 1000 1000 1000 1000 1000 1000 1000 112 0 112 1000 1000 1000 1000

 1000 1000 1000 1000 1000 1000 1000 1000 1000 1000 1000 1000 1000 1000 1000 1000 1000 1000 1000 1000 1000 1000 1000 1000 1000 1000

 1000 1000 1000 1000 1000 1000 1000 1000 1000 1000 1000 1000 1000 1000 1000 1000 1000 1000 1000 1000 1000 0 50 50 79 79

 1000 1000 1000 1000 1000 1000 1000 1000 1000 1000 1000 1000 1000 1000 1000 1000 1000 1000 1000 1000 1000 1000 1000 1000 1000 1000

 1000 1000 1000 1000 1000 1000 1000 1000 1000 1000 1000 1000 1000 1000 1000 1000 1000 45 45 112 112 50 0 50 1000 1000

 1000 1000 1000 1000 1000 1000 1000 1000 1000 1000 1000 1000 1000 1000 1000 1000 1000 1000 1000 1000 1000 1000 1000 1000 1000 1000

 1000 1000 1000 1000 1000 1000 1000 1000 1000 1000 1000 1000 1000 1000 1000 1000 1000 1000 1000 1000 1000 50 50 0 79 79

 1000 1000 1000 1000 1000 1000 1000 1000 1000 1000 1000 1000 1000 1000 1000 1000 1000 1000 1000 1000 1000 1000 1000 1000 1000 1000

 1000 1000 1000 1000 1000 1000 1000 1000 1000 42 42 1000 1000 1000 1000 1000 1000 1000 1000 1000 1000 1000 1000 79 0 79

 1000 1000 1000 1000 1000 1000 1000 1000 1000 1000 1000 1000 1000 1000 1000 1000 1000 1000 1000 1000 1000 1000 1000 1000 1000 1000

 1000 1000 1000 1000 1000 1000 1000 1000 1000 1000 1000 1000 1000 1000 1000 1000 1000 1000 1000 1000 1000 1000 1000 1000 1000 0

EOF
